========================================================== 
File name: C:\DEGR\assets\definitions\MSRCPSP_Gen\100_40_512_10_A.def
Creation date: Wed May 03 10:44:15 CEST 2023
Website: http://imopse.ii.pwr.edu.pl/ 
Reference: 
Myszkowski P. B., Skowronski M. E., Olech L., Oslizlo K., 
Hybrid Ant Colony Optimization in solving Multi-Skill Resource-Constrained Project Scheduling Problem, 
Soft Computing, DOI: DOI 10.1007/s00500-014-1455-x 
========================================================== 
General characteristics: 
Tasks: 100
Resources: 40
Precedence relations: 495
Number of skill types: 10
========================================================== 
ResourceID 	 Salary 	 Skills 
1	 	 	64.9	 	 Q7: 1 	  Q9: 1 	  Q0: 3 	  Q2: 1 	  Q5: 3 	 
2	 	 	38.6	 	 Q1: 2 	  Q8: 2 	  Q6: 1 	  Q2: 0 	  Q7: 2 	  Q3: 0 	  Q5: 1 	  Q0: 2 	 
3	 	 	57.5	 	 Q3: 2 	  Q5: 1 	  Q4: 0 	  Q0: 2 	 
4	 	 	31.3	 	 Q5: 1 	  Q7: 2 	  Q4: 1 	  Q6: 2 	  Q2: 0 	  Q8: 2 	 
5	 	 	85.6	 	 Q8: 1 	  Q9: 1 	  Q5: 3 	 
6	 	 	26.2	 	 Q6: 1 	  Q3: 1 	  Q8: 1 	  Q0: 2 	  Q9: 1 	  Q7: 2 	 
7	 	 	51.2	 	 Q8: 2 	  Q9: 3 	  Q6: 1 	  Q2: 2 	  Q0: 2 	  Q4: 3 	  Q3: 2 	  Q1: 1 	  Q5: 2 	 
8	 	 	31.7	 	 Q2: 0 	  Q6: 1 	  Q0: 0 	  Q8: 2 	  Q7: 3 	 
9	 	 	20.6	 	 Q8: 2 	  Q2: 1 	  Q5: 2 	  Q1: 3 	  Q3: 2 	 
10	 	 	36.4	 	 Q9: 0 	  Q6: 3 	  Q4: 0 	  Q7: 2 	  Q3: 3 	 
11	 	 	14.1	 	 Q3: 1 	  Q1: 3 	 
12	 	 	67.1	 	 Q5: 3 	  Q7: 3 	  Q6: 0 	  Q3: 3 	  Q9: 0 	 
13	 	 	38.5	 	 Q6: 3 	  Q5: 2 	  Q2: 1 	  Q4: 1 	  Q1: 0 	  Q8: 3 	  Q0: 0 	  Q9: 3 	  Q7: 3 	 
14	 	 	71.3	 	 Q2: 0 	 
15	 	 	92.9	 	 Q5: 0 	  Q1: 1 	  Q8: 2 	  Q4: 3 	  Q3: 3 	  Q6: 1 	 
16	 	 	70.6	 	 Q1: 1 	  Q7: 3 	  Q8: 1 	  Q2: 2 	  Q6: 0 	  Q4: 2 	  Q0: 1 	  Q9: 0 	 
17	 	 	31.5	 	 Q3: 1 	  Q0: 2 	  Q2: 3 	  Q6: 2 	  Q7: 0 	  Q5: 1 	  Q1: 1 	  Q9: 0 	 
18	 	 	70.1	 	 Q3: 1 	  Q6: 2 	  Q7: 1 	  Q5: 2 	  Q0: 3 	  Q2: 1 	 
19	 	 	29.6	 	 Q2: 2 	  Q0: 3 	  Q4: 0 	 
20	 	 	50.8	 	 Q3: 3 	  Q1: 2 	  Q2: 2 	 
21	 	 	33.4	 	 Q2: 0 	  Q4: 2 	  Q6: 2 	 
22	 	 	59.5	 	 Q1: 0 	  Q9: 1 	  Q5: 1 	  Q3: 2 	  Q2: 0 	 
23	 	 	93.2	 	 Q3: 3 	 
24	 	 	32.7	 	 Q1: 2 	  Q8: 2 	  Q9: 3 	  Q7: 1 	  Q0: 1 	  Q5: 1 	  Q6: 1 	  Q2: 0 	 
25	 	 	56.6	 	 Q0: 1 	  Q9: 3 	  Q2: 3 	  Q3: 2 	 
26	 	 	15.4	 	 Q8: 1 	  Q6: 3 	  Q9: 3 	  Q3: 0 	  Q1: 0 	 
27	 	 	46.9	 	 Q9: 3 	 
28	 	 	66.2	 	 Q3: 2 	  Q2: 3 	  Q9: 2 	  Q1: 0 	  Q7: 2 	  Q5: 1 	  Q0: 0 	  Q8: 3 	  Q6: 0 	 
29	 	 	52.8	 	 Q4: 0 	  Q9: 3 	  Q2: 1 	  Q5: 3 	  Q7: 2 	  Q1: 0 	 
30	 	 	16.0	 	 Q4: 2 	  Q6: 2 	 
31	 	 	94.0	 	 Q3: 0 	  Q0: 0 	  Q1: 2 	  Q7: 1 	  Q2: 0 	  Q8: 0 	  Q6: 1 	  Q5: 0 	  Q9: 1 	 
32	 	 	48.5	 	 Q6: 0 	 
33	 	 	11.9	 	 Q8: 1 	  Q3: 0 	  Q7: 1 	  Q0: 3 	  Q1: 0 	  Q5: 1 	  Q2: 2 	 
34	 	 	38.4	 	 Q1: 1 	  Q3: 1 	  Q0: 0 	  Q8: 2 	  Q7: 0 	  Q6: 2 	  Q9: 2 	  Q4: 3 	  Q2: 3 	 
35	 	 	58.0	 	 Q9: 2 	 
36	 	 	54.2	 	 Q4: 3 	 
37	 	 	29.6	 	 Q9: 2 	  Q6: 1 	  Q7: 3 	  Q0: 0 	  Q3: 2 	  Q1: 0 	  Q8: 0 	 
38	 	 	29.5	 	 Q6: 2 	  Q3: 0 	  Q7: 0 	  Q9: 2 	 
39	 	 	10.8	 	 Q4: 0 	  Q7: 1 	  Q9: 2 	  Q1: 2 	  Q5: 1 	  Q2: 0 	  Q0: 0 	  Q8: 3 	  Q6: 1 	 
40	 	 	31.9	 	 Q9: 2 	  Q6: 1 	  Q0: 3 	  Q5: 1 	  Q8: 0 	  Q7: 2 	  Q3: 1 	  Q2: 1 	 
========================================================== 
TaskID 	 Duration 	 Skill 	 Predecessor IDs 
1	27	Q9:	2
2	18	Q4:	0
3	33	Q2:	1
4	9	Q6:	1
5	37	Q5:	3
6	12	Q4:	0
7	14	Q8:	2	1	2
8	22	Q0:	0	3
9	14	Q4:	0
10	33	Q5:	1	9	3
11	14	Q4:	0	3
12	28	Q2:	2	7
13	30	Q8:	3	3	7
14	24	Q2:	0
15	24	Q4:	3	10
16	30	Q6:	0
17	38	Q0:	3	14
18	36	Q7:	0
19	21	Q8:	3	13	9	4	2
20	17	Q3:	2	11
21	39	Q7:	2	19
22	30	Q7:	2	16
23	31	Q7:	2	18	6	8	14	11
24	27	Q8:	0	19	9	6
25	13	Q4:	3	1	4
26	26	Q3:	0	15	8
27	35	Q5:	1	13	9
28	14	Q3:	3	5	9
29	28	Q3:	3	22
30	22	Q0:	2	19	12	3	24	27
31	37	Q2:	2	6	20
32	13	Q8:	2	9	24
33	25	Q3:	3	18
34	27	Q4:	0	25	17
35	21	Q9:	0	9	2	22
36	34	Q9:	2	23	5	20	13
37	17	Q1:	0	26	4	9	18	17	11	24	6
38	29	Q5:	3	30	2	7
39	39	Q4:	3
40	35	Q5:	0	30	5	39	17	2
41	34	Q1:	2	9	31	21	3	10
42	36	Q8:	3	2	19	22
43	35	Q3:	1	31	27	42
44	32	Q1:	3	42	1	25	8	22
45	20	Q6:	1	18	26	6	32	2	43
46	34	Q8:	3	30	12	24	28	36
47	18	Q2:	3	2	13	44	9	28	23
48	17	Q1:	0	14	22
49	22	Q9:	0	14	41	11
50	39	Q6:	0	24	3	1	33	21	32	12
51	15	Q2:	0	16	19	29
52	15	Q2:	0	46	21	50	1	3
53	13	Q0:	0	44
54	19	Q7:	2	25	20	42	33	38	43	13	9
55	10	Q1:	2	48	4	1
56	9	Q4:	3	6	1	17	9
57	28	Q8:	1	30	16	33
58	15	Q2:	0	36	23	3	40	5	46	12	42
59	31	Q4:	1	1	26	16	13	56
60	24	Q9:	3	14
61	29	Q1:	3	26	33	57	10	3	21	45	28	37	15
62	24	Q5:	2	48	45	28	17	56	32	34
63	27	Q9:	3	1	33	39	35	12	37
64	20	Q6:	3	57	37	50	2	48	22	59
65	27	Q3:	0	58	63
66	30	Q4:	0	39	11	26	31	22
67	26	Q0:	0	22	15	9	52	60	47	20	21	30	46	64
68	11	Q4:	2	8	51	22	47	15	24	19	44	7	53	29
69	25	Q0:	3	41	30	23	26	65	6	44	59
70	25	Q8:	3	51	50	56	61	60	47	48	58	6
71	32	Q3:	1	61	67	62	2	65	20	24
72	25	Q5:	2	24	10	11	19	42	30	13
73	30	Q1:	0	61	68	14	29	9	4	55	7	34	72	36
74	18	Q8:	1	64	62	70	6	3
75	26	Q4:	2	12	67	50	37	25	47	59
76	18	Q7:	3	57	68	71	62	75	70	4	21	25	17	24	60	31	11
77	12	Q6:	2	64	31	61	13	76	20
78	10	Q9:	3	59	6	21	51	42	13	2
79	38	Q8:	3	43	77	63	32	44	34	18
80	27	Q6:	2	36	38	71	25	59	48	1	39	26
81	9	Q7:	1	71	76	38	67	1	16	50	53	35	3	57	14	20
82	9	Q6:	3	28	9	21	32	44	73	23
83	25	Q6:	3	41	82	67	68	45	27	46	63	5	39	26	18	53
84	37	Q4:	2	2	82	81	31	28	22	68	7	76
85	30	Q5:	1	31	6	58	17	5	25	50	37	65	82
86	40	Q6:	3	17	2	49	48
87	9	Q5:	0	69	43	26	65	30	4	82	46
88	25	Q6:	3	52	33	48	19	50	12	8	5
89	40	Q5:	0	18	77	69	70	51	29	71
90	27	Q0:	1	64	73	69	44	42
91	28	Q5:	1	45	8	3	56	16	27	41	42	20	78	68	88	58
92	37	Q7:	1	40	69	51	81	73	59	64	66
93	11	Q5:	1	44	87	6	10	12	39	85	14	3	60
94	26	Q4:	0	76	61	23	13	58
95	26	Q8:	1	24	18	25	58	51	23	6	81	63	27
96	34	Q4:	2	49	6	83	67	25	56	75	45	15	70	77	50
97	34	Q4:	3	30	87	57	50	18	71	17	32	6	55	47	16	66	34
98	13	Q3:	1	43	97	11	26	3	37	41	89	83	66	52	90
99	26	Q5:	0	32	66	75	53	64	1	22	92
100	18	Q4:	3	17	69	82	66	59	27	45
========================================================== 